c Random 5-CNF over 20 variables and 40 clauses
c Generated with `cnfgen`
c (C) 2012-2016 Massimo Lauria <lauria.massimo@gmail.com>
c https://massimolauria.github.io/cnfgen
c
c COMMAND LINE: cnfgen --output tmp-5-20-40.dimacs --output-format dimacs randkcnf 5 20 40
c
c sdimacs generated by gen-sdimacs
c
p cnf 20 40
r 0.5 1 2 3 4 5 6 7 8 9 10 0
e  11 12 13 14 15 16 17 18 19 20 0
-1 -4 5 -7 16 0
6 8 9 -17 18 0
4 8 -12 -16 18 0
-6 7 -9 14 18 0
2 5 8 9 16 0
4 -6 -10 12 -16 0
1 2 3 -10 -14 0
-4 5 -9 12 20 0
-4 -5 12 -16 -19 0
-4 7 -8 12 14 0
1 4 -11 -18 -19 0
1 -2 6 11 -13 0
-8 10 -12 -13 -20 0
-1 9 10 11 -20 0
-1 2 -3 -6 -8 0
-3 14 -15 -18 -20 0
2 -3 -4 -14 16 0
-2 6 -9 -14 17 0
-1 11 -15 -16 18 0
-5 -10 -14 -19 -20 0
-2 -3 9 -14 -20 0
-2 -10 11 12 19 0
-1 2 -3 -7 -12 0
-1 5 -8 10 13 0
-12 -14 -16 -18 -20 0
6 -9 14 16 -18 0
4 -5 -8 9 14 0
2 -6 8 -11 -14 0
5 12 -14 17 20 0
7 8 -12 -16 20 0
-4 -6 -8 -13 17 0
1 4 -7 11 15 0
-1 2 4 10 -18 0
-6 -8 -12 13 -15 0
-1 3 11 13 -15 0
5 6 7 8 -14 0
-5 11 -15 -18 19 0
2 5 8 -10 11 0
3 4 -8 -15 -20 0
-5 6 9 13 -20 0
